proyfinal/src/viki/013/experimentInOfficeAgust.take6.output/50d2848f-07af-4a91-b159-acf30bbd5b7c.als.out
Reading from standard input... Use '--help' for help.
============================[ Problem Statistics ]=============================
|                                                                             |
|  Number of variables:         87638                                         |
|  Number of clauses:          161767                                         |
|  Parse time:                   0.04 s                                       |
|                                                                             |
============================[ Search Statistics ]==============================
| Conflicts |          ORIGINAL         |          LEARNT          | Progress |
|           |    Vars  Clauses Literals |    Limit  Clauses Lit/Cl |          |
===============================================================================
|       100 |   62140   104484   260626 |    38310      100     19 | 29.095 % |
|       250 |   62140   104484   260626 |    42141      250     16 | 29.095 % |
|       475 |   62048   104142   259721 |    46356      414     26 | 29.200 % |
|       812 |   62048   104142   259721 |    50991      751     47 | 29.200 % |
|      1318 |   62048   104142   259721 |    56090     1257     49 | 29.200 % |
|      2077 |   62048   104142   259721 |    61699     2016     66 | 29.200 % |
|      3216 |   62045   104119   259660 |    67869     3154     69 | 29.203 % |
|      4924 |   61934   103672   258612 |    74656     4854     72 | 29.330 % |
|      7486 |   61933   103628   258522 |    82122     7414     76 | 29.331 % |
|     11330 |   61842   103190   257543 |    90334     8915     84 | 29.435 % |
===============================================================================
restarts              : 62
conflicts             : 15423          (7767 /sec)
decisions             : 51171          (0.00 % random) (25770 /sec)
propagations          : 19710788       (9926622 /sec)
conflict literals     : 1254423        (49.46 % deleted)
Memory used           : 35.35 MB
CPU time              : 1.98565 s

UNSATISFIABLE
